p cnf 12 50 
2 8 10 0
9 -10 -12 0
-4 -8 -12 0
-4 11 10 0
1 7 -6 0
1 -2 -4 0
-10 -5 7 0
11 4 2 0
-5 7 -8 0
-5 -7 3 0
7 -12 -3 0
-4 12 9 0
-4 -10 -5 0
-10 9 6 0
-7 6 8 0
4 6 9 0
-5 2 -7 0
10 -4 -5 0
-12 4 -7 0
5 12 4 0
-10 -8 9 0
-10 -12 3 0
12 -9 8 0
4 8 11 0
-5 8 -12 0
1 -4 -10 0
-2 9 7 0
4 -12 6 0
12 5 2 0
-6 -2 10 0
-2 7 8 0
9 12 -4 0
-4 7 -9 0
-10 -1 5 0
9 -12 7 0
-7 -10 5 0
9 -7 12 0
-10 2 3 0
5 9 12 0
-9 5 3 0
3 -12 -2 0
9 4 -1 0
-5 -12 1 0
10 6 7 0
-10 2 -11 0
-8 -12 -1 0
3 12 -7 0
3 6 -4 0
-5 11 9 0
11 -10 9 0
